(set-info :smt-lib-version 2.6)
(set-logic QF_SLIA)
(set-info :source |
Generated by: Joel Day, Thorsten Ehlers, Mitja Kulczynski, Federico Mora, Florin Manea, Dirk Nowotka, Danny Poulsen, Zhengyang Lu
Application: Test WOORPJE
Target solver: WOORPJE
Publications: Day, J. D., Ehlers, T., Kulczynski, M., Manea, F., Nowotka, D., & Poulsen, D. B. (2019). On solving word equations using SAT. In RP 2019
Description: Enriches a system of 30 word equations by suitable linear constraints
|)
(set-info :license "https://creativecommons.org/licenses/by/4.0/")
(set-info :category "random")
(set-info :status unknown)

(declare-fun G () String)
(declare-fun F () String)
(declare-fun C () String)
(declare-fun D () String)
(assert (= (str.++  "cbbfdb" G "ccbcda" C "abbaaaeeddae")  (str.++  "cbb" D "ccabbaaaeeddae") ))
(assert (= (str.++  "d" F "cabafcabfaedbadedacddcbabfcdabaefbb")  (str.++  "ddbcccabafcabfaedbadedacddcbabfcdabaefbb" "") ))
(assert (= (str.++  "edebbfeedaadb" F "afefbbaacbbaebceeabcbda")  (str.++  "edebbfeedaadbdbccafefbbaacbbaebceeabcbda" "") ))
(assert (<=(* (str.len F) 2) 14))
(assert (>=(* (str.len G) 19) 38))
(assert (<=(* (str.len G) 11) 1342))
(assert (<=(* (str.len C) 9) 315))
(check-sat)

(exit)
